p tw 45 88
0 1
0 2
0 41
0 42
1 2
1 15
1 16
2 25
2 40
3 4
3 5
3 9
3 13
4 5
4 12
4 33
5 11
5 43
6 7
6 8
6 34
6 44
7 8
7 14
7 27
8 21
8 37
9 10
9 11
9 13
10 11
10 38
10 39
11 43
12 13
12 14
12 33
13 14
14 27
15 16
15 41
15 42
16 35
16 40
17 18
17 19
17 25
17 26
18 19
18 24
18 31
19 23
19 36
20 21
20 22
20 31
20 32
21 22
21 37
22 23
22 24
23 24
23 36
24 31
25 26
25 40
26 35
26 36
27 33
27 34
28 29
28 30
28 39
28 43
29 30
29 38
30 38
31 32
32 37
32 44
33 34
34 44
35 36
35 40
37 44
38 39
39 43
41 42
